(declare-const X String)
; /insertBefore\(document\.body\)([^?]+createElement\([\x22\x27]TR[\x22\x27]\)\))+[^?]+<body[^?]+?<\/body>/i
(assert (not (str.in_re X (re.++ (str.to_re "/insertBefore(document.body)") (re.+ (re.++ (re.+ (re.comp (str.to_re "?"))) (str.to_re "createElement(") (re.union (str.to_re "\u{22}") (str.to_re "'")) (str.to_re "TR") (re.union (str.to_re "\u{22}") (str.to_re "'")) (str.to_re "))"))) (re.+ (re.comp (str.to_re "?"))) (str.to_re "<body") (re.+ (re.comp (str.to_re "?"))) (str.to_re "</body>/i\u{a}")))))
; hjhgquqssq\x2fpjm[^\n\r]*User-Agent\x3A
(assert (str.in_re X (re.++ (str.to_re "hjhgquqssq/pjm") (re.* (re.union (str.to_re "\u{a}") (str.to_re "\u{d}"))) (str.to_re "User-Agent:\u{a}"))))
(check-sat)

(exit)
